c "617075.clq"
p edge 142 552
e 1 5
e 1 6
e 1 7
e 1 9
e 1 12
e 1 13
e 1 14
e 1 15
e 1 16
e 1 20
e 1 27
e 1 32
e 1 42
e 1 44
e 1 46
e 1 51
e 1 52
e 1 56
e 1 57
e 1 61
e 1 63
e 1 99
e 1 100
e 1 103
e 1 111
e 1 112
e 1 119
e 1 121
e 1 134
e 2 5
e 2 24
e 2 37
e 2 89
e 3 5
e 3 6
e 3 7
e 3 8
e 3 9
e 3 25
e 3 31
e 3 54
e 3 94
e 3 102
e 3 114
e 3 115
e 3 118
e 3 125
e 3 126
e 3 131
e 4 5
e 4 6
e 4 7
e 4 9
e 4 10
e 4 12
e 4 17
e 4 29
e 4 30
e 4 38
e 4 45
e 4 47
e 4 62
e 4 70
e 4 74
e 4 93
e 4 97
e 4 105
e 4 142
e 5 6
e 5 8
e 5 10
e 5 11
e 5 14
e 5 15
e 5 16
e 5 17
e 5 20
e 5 24
e 5 25
e 5 31
e 5 32
e 5 33
e 5 35
e 5 44
e 5 50
e 5 54
e 5 59
e 5 66
e 5 71
e 5 78
e 5 89
e 5 90
e 5 98
e 5 107
e 5 110
e 5 129
e 5 133
e 5 138
e 5 139
e 6 7
e 6 8
e 6 11
e 6 19
e 6 20
e 6 21
e 6 23
e 6 26
e 6 32
e 6 34
e 6 35
e 6 36
e 6 38
e 6 47
e 6 51
e 6 59
e 6 61
e 6 64
e 6 68
e 6 77
e 6 86
e 6 94
e 6 98
e 6 110
e 6 116
e 6 122
e 7 8
e 7 10
e 7 11
e 7 12
e 7 13
e 7 18
e 7 19
e 7 23
e 7 28
e 7 30
e 7 34
e 7 39
e 7 43
e 7 45
e 7 49
e 7 53
e 7 54
e 7 68
e 7 76
e 7 78
e 7 82
e 7 85
e 7 101
e 7 113
e 7 117
e 7 124
e 7 126
e 7 135
e 7 141
e 8 9
e 8 11
e 8 14
e 8 16
e 8 17
e 8 18
e 8 21
e 8 22
e 8 26
e 8 28
e 8 43
e 8 44
e 8 49
e 8 55
e 8 67
e 8 73
e 8 76
e 8 92
e 8 95
e 8 96
e 8 99
e 8 103
e 8 105
e 8 124
e 8 127
e 8 133
e 9 10
e 9 12
e 9 15
e 9 18
e 9 19
e 9 21
e 9 22
e 9 26
e 9 29
e 9 36
e 9 41
e 9 43
e 9 48
e 9 50
e 9 51
e 9 52
e 9 54
e 9 57
e 9 62
e 9 64
e 9 65
e 9 68
e 9 69
e 9 75
e 9 77
e 9 97
e 9 113
e 9 122
e 9 123
e 9 124
e 9 133
e 9 136
e 10 13
e 10 16
e 10 20
e 10 22
e 10 23
e 10 26
e 10 27
e 10 31
e 10 32
e 10 40
e 10 48
e 10 55
e 10 61
e 10 64
e 10 66
e 10 72
e 10 73
e 10 79
e 11 13
e 11 17
e 11 24
e 11 27
e 11 29
e 11 33
e 11 37
e 11 40
e 11 51
e 11 59
e 11 63
e 11 97
e 11 121
e 12 14
e 12 15
e 12 22
e 12 50
e 12 52
e 12 58
e 12 90
e 12 101
e 12 113
e 13 27
e 13 72
e 13 93
e 13 106
e 13 139
e 14 46
e 14 47
e 14 75
e 14 95
e 14 119
e 14 132
e 15 18
e 15 24
e 15 25
e 15 30
e 15 31
e 15 42
e 15 43
e 15 57
e 15 77
e 15 127
e 15 134
e 16 21
e 16 36
e 16 42
e 16 46
e 16 53
e 16 68
e 16 69
e 16 85
e 16 102
e 16 109
e 16 115
e 16 121
e 17 19
e 17 30
e 17 37
e 17 57
e 17 72
e 18 35
e 18 99
e 18 119
e 19 28
e 19 70
e 19 72
e 19 107
e 19 117
e 20 55
e 20 56
e 20 115
e 20 118
e 20 123
e 20 140
e 21 23
e 21 25
e 21 28
e 21 29
e 21 34
e 21 37
e 21 60
e 21 67
e 21 81
e 21 100
e 21 108
e 21 116
e 21 136
e 22 65
e 22 123
e 23 40
e 23 60
e 23 66
e 23 83
e 23 84
e 23 91
e 23 100
e 23 117
e 23 133
e 24 38
e 24 41
e 24 45
e 24 88
e 24 129
e 25 132
e 25 142
e 26 33
e 26 39
e 26 84
e 26 93
e 26 99
e 27 34
e 27 38
e 27 47
e 27 53
e 27 79
e 27 84
e 27 116
e 27 141
e 28 41
e 28 56
e 28 83
e 28 91
e 28 92
e 28 112
e 28 131
e 28 137
e 29 45
e 29 69
e 29 74
e 29 88
e 29 92
e 29 105
e 31 33
e 31 35
e 31 39
e 31 46
e 31 52
e 31 55
e 31 60
e 31 71
e 31 73
e 31 82
e 31 87
e 31 112
e 32 36
e 32 50
e 32 104
e 32 128
e 33 40
e 33 70
e 33 73
e 33 74
e 33 79
e 33 81
e 33 88
e 33 131
e 34 41
e 34 48
e 34 63
e 34 75
e 34 78
e 34 79
e 34 109
e 34 118
e 35 44
e 35 90
e 35 96
e 35 134
e 36 49
e 36 70
e 36 76
e 36 106
e 36 111
e 36 135
e 37 77
e 37 89
e 37 95
e 37 139
e 38 39
e 38 42
e 38 56
e 38 114
e 39 48
e 39 49
e 39 58
e 39 65
e 39 94
e 39 122
e 40 89
e 40 107
e 41 65
e 41 71
e 41 74
e 41 87
e 41 88
e 41 100
e 42 58
e 42 106
e 43 67
e 43 109
e 43 130
e 43 138
e 44 53
e 45 69
e 45 102
e 46 62
e 46 78
e 46 93
e 46 115
e 46 120
e 47 110
e 47 129
e 47 140
e 49 59
e 49 129
e 51 94
e 51 97
e 51 120
e 52 60
e 52 63
e 52 84
e 52 125
e 52 128
e 52 131
e 54 101
e 54 113
e 54 128
e 55 58
e 55 64
e 55 66
e 55 96
e 55 116
e 55 137
e 55 139
e 56 61
e 56 81
e 56 83
e 56 91
e 56 92
e 56 96
e 57 67
e 57 141
e 58 76
e 58 80
e 58 86
e 58 91
e 58 98
e 58 103
e 60 71
e 60 82
e 60 114
e 61 62
e 63 80
e 63 82
e 64 80
e 64 83
e 65 85
e 66 86
e 66 130
e 68 108
e 69 95
e 69 119
e 69 132
e 70 75
e 70 121
e 70 123
e 70 127
e 70 135
e 70 137
e 71 109
e 72 80
e 72 86
e 72 98
e 73 81
e 73 107
e 73 108
e 75 134
e 79 85
e 80 104
e 82 101
e 82 112
e 84 87
e 84 104
e 84 128
e 84 140
e 85 87
e 85 125
e 85 140
e 87 90
e 87 106
e 88 135
e 89 126
e 91 122
e 91 136
e 92 114
e 95 104
e 95 136
e 96 108
e 97 103
e 97 110
e 97 120
e 99 127
e 100 102
e 102 130
e 104 105
e 107 111
e 107 118
e 107 138
e 109 111
e 115 117
e 115 132
e 116 124
e 117 125
e 117 126
e 117 141
e 119 120
e 121 130
e 121 138
e 126 137
e 138 142
e 139 142
